1 -1 0
1 -2 0
1 -3 0
1 -4 0
1 -5 0
1 -6 0
1 -7 0
1 -8 0
1 -9 0
1 -10 0
1 -11 0
1 -12 0
1 -13 0
1 -14 0
1 -15 0
1 -16 0
1 -17 0
1 -18 0
1 -19 0
1 -20 0
h 58 0
h 20 59 0
h 19 59 0
h 20 19 60 0
h 17 59 0
h 20 17 60 0
h 19 17 60 0
h 20 19 17 61 0
h 13 62 0
h 11 62 0
h 13 11 63 0
h 1 62 0
h 13 1 63 0
h 11 1 63 0
h 13 11 1 64 0
h 16 65 0
h -62 65 0
h -63 66 0
h -64 67 0
h 16 -62 66 0
h 16 -63 67 0
h 16 -64 68 0
h -59 69 0
h -60 70 0
h -61 71 0
h -65 69 0
h -66 70 0
h -67 71 0
h -68 72 0
h -59 -65 70 0
h -59 -66 71 0
h -59 -67 72 0
h -59 -68 73 0
h -60 -65 71 0
h -60 -66 72 0
h -60 -67 73 0
h -60 -68 74 0
h -61 -65 72 0
h -61 -66 73 0
h -61 -67 74 0
h -61 -68 75 0
h -24 76 0
h -23 76 0
h -24 -23 77 0
h -22 76 0
h -24 -22 77 0
h -23 -22 77 0
h -24 -23 -22 78 0
h -76 79 0
h -77 80 0
h -78 81 0
h -70 79 0
h -72 80 0
h -74 81 0
h -76 -70 80 0
h -76 -72 81 0
h -76 -74 82 0
h -77 -70 81 0
h -77 -72 82 0
h -78 -70 82 0
h -82 0
h 83 0
h -83 84 0
h -20 84 0
h -83 -20 85 0
h -19 84 0
h -83 -19 85 0
h -20 -19 85 0
h -83 -20 -19 86 0
h -17 87 0
h -16 87 0
h -17 -16 88 0
h -13 89 0
h -11 89 0
h -13 -11 90 0
h -1 89 0
h -13 -1 90 0
h -11 -1 90 0
h -13 -11 -1 91 0
h -87 92 0
h -88 93 0
h -89 92 0
h -90 93 0
h -91 94 0
h -87 -89 93 0
h -87 -90 94 0
h -87 -91 95 0
h -88 -89 94 0
h -88 -90 95 0
h -88 -91 96 0
h -84 97 0
h -85 98 0
h -86 99 0
h -92 97 0
h -93 98 0
h -94 99 0
h -95 100 0
h -96 101 0
h -84 -92 98 0
h -84 -93 99 0
h -84 -94 100 0
h -84 -95 101 0
h -84 -96 102 0
h -85 -92 99 0
h -85 -93 100 0
h -85 -94 101 0
h -85 -95 102 0
h -85 -96 103 0
h -86 -92 100 0
h -86 -93 101 0
h -86 -94 102 0
h -86 -95 103 0
h -86 -96 104 0
h -104 0
h 24 105 0
h 23 105 0
h 24 23 106 0
h 22 105 0
h 24 22 106 0
h 23 22 106 0
h 24 23 22 107 0
h -105 108 0
h -106 109 0
h -107 110 0
h -98 108 0
h -100 109 0
h -102 110 0
h -104 111 0
h -105 -98 109 0
h -105 -100 110 0
h -105 -102 111 0
h -106 -98 110 0
h -106 -100 111 0
h -107 -98 111 0
h -111 0
h 112 0
h -112 113 0
h 19 113 0
h -112 19 114 0
h 12 115 0
h 11 115 0
h 12 11 116 0
h 2 115 0
h 12 2 116 0
h 11 2 116 0
h 12 11 2 117 0
h -113 118 0
h -114 119 0
h -115 118 0
h -116 119 0
h -117 120 0
h -113 -115 119 0
h -113 -116 120 0
h -113 -117 121 0
h -114 -115 120 0
h -114 -116 121 0
h -114 -117 122 0
h -27 123 0
h -26 123 0
h -27 -26 124 0
h -123 125 0
h -124 126 0
h -119 125 0
h -121 126 0
h -123 -119 126 0
h -123 -121 127 0
h -124 -119 127 0
h -127 0
h 128 0
h -128 129 0
h -19 129 0
h -128 -19 130 0
h -12 131 0
h -11 131 0
h -12 -11 132 0
h -2 131 0
h -12 -2 132 0
h -11 -2 132 0
h -12 -11 -2 133 0
h -129 134 0
h -130 135 0
h -131 134 0
h -132 135 0
h -133 136 0
h -129 -131 135 0
h -129 -132 136 0
h -129 -133 137 0
h -130 -131 136 0
h -130 -132 137 0
h -130 -133 138 0
h 27 139 0
h 26 139 0
h 27 26 140 0
h -139 141 0
h -140 142 0
h -135 141 0
h -137 142 0
h -139 -135 142 0
h -139 -137 143 0
h -140 -135 143 0
h -143 0
h 144 0
h -144 145 0
h 16 145 0
h -144 16 146 0
h 14 147 0
h 13 147 0
h 14 13 148 0
h 3 147 0
h 14 3 148 0
h 13 3 148 0
h 14 13 3 149 0
h -145 150 0
h -146 151 0
h -147 150 0
h -148 151 0
h -149 152 0
h -145 -147 151 0
h -145 -148 152 0
h -145 -149 153 0
h -146 -147 152 0
h -146 -148 153 0
h -146 -149 154 0
h -30 155 0
h -29 155 0
h -30 -29 156 0
h -155 157 0
h -156 158 0
h -151 157 0
h -153 158 0
h -155 -151 158 0
h -155 -153 159 0
h -156 -151 159 0
h -159 0
h 160 0
h -160 161 0
h -16 161 0
h -160 -16 162 0
h -14 163 0
h -13 163 0
h -14 -13 164 0
h -3 163 0
h -14 -3 164 0
h -13 -3 164 0
h -14 -13 -3 165 0
h -161 166 0
h -162 167 0
h -163 166 0
h -164 167 0
h -165 168 0
h -161 -163 167 0
h -161 -164 168 0
h -161 -165 169 0
h -162 -163 168 0
h -162 -164 169 0
h -162 -165 170 0
h 30 171 0
h 29 171 0
h 30 29 172 0
h -171 173 0
h -172 174 0
h -167 173 0
h -169 174 0
h -171 -167 174 0
h -171 -169 175 0
h -172 -167 175 0
h -175 0
h 176 0
h 20 177 0
h 19 177 0
h 20 19 178 0
h 18 177 0
h 20 18 178 0
h 19 18 178 0
h 20 19 18 179 0
h 13 180 0
h 11 180 0
h 13 11 181 0
h 4 180 0
h 13 4 181 0
h 11 4 181 0
h 13 11 4 182 0
h 15 183 0
h -180 183 0
h -181 184 0
h -182 185 0
h 15 -180 184 0
h 15 -181 185 0
h 15 -182 186 0
h -177 187 0
h -178 188 0
h -179 189 0
h -183 187 0
h -184 188 0
h -185 189 0
h -186 190 0
h -177 -183 188 0
h -177 -184 189 0
h -177 -185 190 0
h -177 -186 191 0
h -178 -183 189 0
h -178 -184 190 0
h -178 -185 191 0
h -178 -186 192 0
h -179 -183 190 0
h -179 -184 191 0
h -179 -185 192 0
h -179 -186 193 0
h -34 194 0
h -33 194 0
h -34 -33 195 0
h -32 194 0
h -34 -32 195 0
h -33 -32 195 0
h -34 -33 -32 196 0
h -194 197 0
h -195 198 0
h -196 199 0
h -188 197 0
h -190 198 0
h -192 199 0
h -194 -188 198 0
h -194 -190 199 0
h -194 -192 200 0
h -195 -188 199 0
h -195 -190 200 0
h -196 -188 200 0
h -200 0
h 201 0
h -201 202 0
h -20 202 0
h -201 -20 203 0
h -19 202 0
h -201 -19 203 0
h -20 -19 203 0
h -201 -20 -19 204 0
h -18 205 0
h -15 205 0
h -18 -15 206 0
h -13 207 0
h -11 207 0
h -13 -11 208 0
h -4 207 0
h -13 -4 208 0
h -11 -4 208 0
h -13 -11 -4 209 0
h -205 210 0
h -206 211 0
h -207 210 0
h -208 211 0
h -209 212 0
h -205 -207 211 0
h -205 -208 212 0
h -205 -209 213 0
h -206 -207 212 0
h -206 -208 213 0
h -206 -209 214 0
h -202 215 0
h -203 216 0
h -204 217 0
h -210 215 0
h -211 216 0
h -212 217 0
h -213 218 0
h -214 219 0
h -202 -210 216 0
h -202 -211 217 0
h -202 -212 218 0
h -202 -213 219 0
h -202 -214 220 0
h -203 -210 217 0
h -203 -211 218 0
h -203 -212 219 0
h -203 -213 220 0
h -203 -214 221 0
h -204 -210 218 0
h -204 -211 219 0
h -204 -212 220 0
h -204 -213 221 0
h -204 -214 222 0
h -222 0
h 34 223 0
h 33 223 0
h 34 33 224 0
h 32 223 0
h 34 32 224 0
h 33 32 224 0
h 34 33 32 225 0
h -223 226 0
h -224 227 0
h -225 228 0
h -216 226 0
h -218 227 0
h -220 228 0
h -222 229 0
h -223 -216 227 0
h -223 -218 228 0
h -223 -220 229 0
h -224 -216 228 0
h -224 -218 229 0
h -225 -216 229 0
h -229 0
h 230 0
h 18 231 0
h 16 231 0
h 18 16 232 0
h 14 231 0
h 18 14 232 0
h 16 14 232 0
h 18 16 14 233 0
h 12 234 0
h 11 234 0
h 12 11 235 0
h 5 234 0
h 12 5 235 0
h 11 5 235 0
h 12 11 5 236 0
h 13 237 0
h -234 237 0
h -235 238 0
h -236 239 0
h 13 -234 238 0
h 13 -235 239 0
h 13 -236 240 0
h -231 241 0
h -232 242 0
h -233 243 0
h -237 241 0
h -238 242 0
h -239 243 0
h -240 244 0
h -231 -237 242 0
h -231 -238 243 0
h -231 -239 244 0
h -231 -240 245 0
h -232 -237 243 0
h -232 -238 244 0
h -232 -239 245 0
h -232 -240 246 0
h -233 -237 244 0
h -233 -238 245 0
h -233 -239 246 0
h -233 -240 247 0
h -38 248 0
h -37 248 0
h -38 -37 249 0
h -36 248 0
h -38 -36 249 0
h -37 -36 249 0
h -38 -37 -36 250 0
h -248 251 0
h -249 252 0
h -250 253 0
h -242 251 0
h -244 252 0
h -246 253 0
h -248 -242 252 0
h -248 -244 253 0
h -248 -246 254 0
h -249 -242 253 0
h -249 -244 254 0
h -250 -242 254 0
h -254 0
h 255 0
h -255 256 0
h -18 256 0
h -255 -18 257 0
h -16 256 0
h -255 -16 257 0
h -18 -16 257 0
h -255 -18 -16 258 0
h -14 259 0
h -13 259 0
h -14 -13 260 0
h -12 261 0
h -11 261 0
h -12 -11 262 0
h -5 261 0
h -12 -5 262 0
h -11 -5 262 0
h -12 -11 -5 263 0
h -259 264 0
h -260 265 0
h -261 264 0
h -262 265 0
h -263 266 0
h -259 -261 265 0
h -259 -262 266 0
h -259 -263 267 0
h -260 -261 266 0
h -260 -262 267 0
h -260 -263 268 0
h -256 269 0
h -257 270 0
h -258 271 0
h -264 269 0
h -265 270 0
h -266 271 0
h -267 272 0
h -268 273 0
h -256 -264 270 0
h -256 -265 271 0
h -256 -266 272 0
h -256 -267 273 0
h -256 -268 274 0
h -257 -264 271 0
h -257 -265 272 0
h -257 -266 273 0
h -257 -267 274 0
h -257 -268 275 0
h -258 -264 272 0
h -258 -265 273 0
h -258 -266 274 0
h -258 -267 275 0
h -258 -268 276 0
h -276 0
h 38 277 0
h 37 277 0
h 38 37 278 0
h 36 277 0
h 38 36 278 0
h 37 36 278 0
h 38 37 36 279 0
h -277 280 0
h -278 281 0
h -279 282 0
h -270 280 0
h -272 281 0
h -274 282 0
h -276 283 0
h -277 -270 281 0
h -277 -272 282 0
h -277 -274 283 0
h -278 -270 282 0
h -278 -272 283 0
h -279 -270 283 0
h -283 0
h 284 0
h 20 285 0
h 19 285 0
h 20 19 286 0
h 17 285 0
h 20 17 286 0
h 19 17 286 0
h 20 19 17 287 0
h 14 288 0
h 11 288 0
h 14 11 289 0
h 6 288 0
h 14 6 289 0
h 11 6 289 0
h 14 11 6 290 0
h 16 291 0
h -288 291 0
h -289 292 0
h -290 293 0
h 16 -288 292 0
h 16 -289 293 0
h 16 -290 294 0
h -285 295 0
h -286 296 0
h -287 297 0
h -291 295 0
h -292 296 0
h -293 297 0
h -294 298 0
h -285 -291 296 0
h -285 -292 297 0
h -285 -293 298 0
h -285 -294 299 0
h -286 -291 297 0
h -286 -292 298 0
h -286 -293 299 0
h -286 -294 300 0
h -287 -291 298 0
h -287 -292 299 0
h -287 -293 300 0
h -287 -294 301 0
h -42 302 0
h -41 302 0
h -42 -41 303 0
h -40 302 0
h -42 -40 303 0
h -41 -40 303 0
h -42 -41 -40 304 0
h -302 305 0
h -303 306 0
h -304 307 0
h -296 305 0
h -298 306 0
h -300 307 0
h -302 -296 306 0
h -302 -298 307 0
h -302 -300 308 0
h -303 -296 307 0
h -303 -298 308 0
h -304 -296 308 0
h -308 0
h 309 0
h -309 310 0
h -20 310 0
h -309 -20 311 0
h -19 310 0
h -309 -19 311 0
h -20 -19 311 0
h -309 -20 -19 312 0
h -17 313 0
h -16 313 0
h -17 -16 314 0
h -14 315 0
h -11 315 0
h -14 -11 316 0
h -6 315 0
h -14 -6 316 0
h -11 -6 316 0
h -14 -11 -6 317 0
h -313 318 0
h -314 319 0
h -315 318 0
h -316 319 0
h -317 320 0
h -313 -315 319 0
h -313 -316 320 0
h -313 -317 321 0
h -314 -315 320 0
h -314 -316 321 0
h -314 -317 322 0
h -310 323 0
h -311 324 0
h -312 325 0
h -318 323 0
h -319 324 0
h -320 325 0
h -321 326 0
h -322 327 0
h -310 -318 324 0
h -310 -319 325 0
h -310 -320 326 0
h -310 -321 327 0
h -310 -322 328 0
h -311 -318 325 0
h -311 -319 326 0
h -311 -320 327 0
h -311 -321 328 0
h -311 -322 329 0
h -312 -318 326 0
h -312 -319 327 0
h -312 -320 328 0
h -312 -321 329 0
h -312 -322 330 0
h -330 0
h 42 331 0
h 41 331 0
h 42 41 332 0
h 40 331 0
h 42 40 332 0
h 41 40 332 0
h 42 41 40 333 0
h -331 334 0
h -332 335 0
h -333 336 0
h -324 334 0
h -326 335 0
h -328 336 0
h -330 337 0
h -331 -324 335 0
h -331 -326 336 0
h -331 -328 337 0
h -332 -324 336 0
h -332 -326 337 0
h -333 -324 337 0
h -337 0
h 338 0
h -338 339 0
h 20 339 0
h -338 20 340 0
h 19 339 0
h -338 19 340 0
h 20 19 340 0
h -338 20 19 341 0
h 17 342 0
h 15 342 0
h 17 15 343 0
h 13 342 0
h 17 13 343 0
h 15 13 343 0
h 17 15 13 344 0
h 12 345 0
h 11 345 0
h 12 11 346 0
h 7 345 0
h 12 7 346 0
h 11 7 346 0
h 12 11 7 347 0
h -342 348 0
h -343 349 0
h -344 350 0
h -345 348 0
h -346 349 0
h -347 350 0
h -342 -345 349 0
h -342 -346 350 0
h -342 -347 351 0
h -343 -345 350 0
h -343 -346 351 0
h -343 -347 352 0
h -344 -345 351 0
h -344 -346 352 0
h -344 -347 353 0
h -339 354 0
h -340 355 0
h -341 356 0
h -348 354 0
h -349 355 0
h -350 356 0
h -351 357 0
h -352 358 0
h -353 359 0
h -339 -348 355 0
h -339 -349 356 0
h -339 -350 357 0
h -339 -351 358 0
h -339 -352 359 0
h -339 -353 360 0
h -340 -348 356 0
h -340 -349 357 0
h -340 -350 358 0
h -340 -351 359 0
h -340 -352 360 0
h -340 -353 361 0
h -341 -348 357 0
h -341 -349 358 0
h -341 -350 359 0
h -341 -351 360 0
h -341 -352 361 0
h -341 -353 362 0
h -46 363 0
h -45 363 0
h -46 -45 364 0
h -44 363 0
h -46 -44 364 0
h -45 -44 364 0
h -46 -45 -44 365 0
h -47 366 0
h -363 366 0
h -364 367 0
h -365 368 0
h -47 -363 367 0
h -47 -364 368 0
h -47 -365 369 0
h -366 370 0
h -368 371 0
h -355 370 0
h -359 371 0
h -366 -355 371 0
h -366 -359 372 0
h -368 -355 372 0
h -367 373 0
h -369 374 0
h -357 373 0
h -361 374 0
h -367 -357 374 0
h -371 375 0
h -373 375 0
h -371 -373 376 0
h -372 377 0
h -374 377 0
h -372 -374 378 0
h -378 0
h 379 0
h -379 380 0
h -20 380 0
h -379 -20 381 0
h -19 380 0
h -379 -19 381 0
h -20 -19 381 0
h -379 -20 -19 382 0
h -17 383 0
h -15 383 0
h -17 -15 384 0
h -13 383 0
h -17 -13 384 0
h -15 -13 384 0
h -17 -15 -13 385 0
h -12 386 0
h -11 386 0
h -12 -11 387 0
h -7 386 0
h -12 -7 387 0
h -11 -7 387 0
h -12 -11 -7 388 0
h -383 389 0
h -384 390 0
h -385 391 0
h -386 389 0
h -387 390 0
h -388 391 0
h -383 -386 390 0
h -383 -387 391 0
h -383 -388 392 0
h -384 -386 391 0
h -384 -387 392 0
h -384 -388 393 0
h -385 -386 392 0
h -385 -387 393 0
h -385 -388 394 0
h -380 395 0
h -381 396 0
h -382 397 0
h -389 395 0
h -390 396 0
h -391 397 0
h -392 398 0
h -393 399 0
h -394 400 0
h -380 -389 396 0
h -380 -390 397 0
h -380 -391 398 0
h -380 -392 399 0
h -380 -393 400 0
h -380 -394 401 0
h -381 -389 397 0
h -381 -390 398 0
h -381 -391 399 0
h -381 -392 400 0
h -381 -393 401 0
h -381 -394 402 0
h -382 -389 398 0
h -382 -390 399 0
h -382 -391 400 0
h -382 -392 401 0
h -382 -393 402 0
h -382 -394 403 0
h 46 404 0
h 45 404 0
h 46 45 405 0
h 44 404 0
h 46 44 405 0
h 45 44 405 0
h 46 45 44 406 0
h 47 407 0
h -404 407 0
h -405 408 0
h -406 409 0
h 47 -404 408 0
h 47 -405 409 0
h 47 -406 410 0
h -407 411 0
h -409 412 0
h -396 411 0
h -400 412 0
h -407 -396 412 0
h -407 -400 413 0
h -409 -396 413 0
h -408 414 0
h -410 415 0
h -398 414 0
h -402 415 0
h -408 -398 415 0
h -412 416 0
h -414 416 0
h -412 -414 417 0
h -413 418 0
h -415 418 0
h -413 -415 419 0
h -419 0
h 420 0
h 18 421 0
h 16 421 0
h 18 16 422 0
h 15 421 0
h 18 15 422 0
h 16 15 422 0
h 18 16 15 423 0
h 13 424 0
h 11 424 0
h 13 11 425 0
h 8 424 0
h 13 8 425 0
h 11 8 425 0
h 13 11 8 426 0
h 14 427 0
h -424 427 0
h -425 428 0
h -426 429 0
h 14 -424 428 0
h 14 -425 429 0
h 14 -426 430 0
h -421 431 0
h -422 432 0
h -423 433 0
h -427 431 0
h -428 432 0
h -429 433 0
h -430 434 0
h -421 -427 432 0
h -421 -428 433 0
h -421 -429 434 0
h -421 -430 435 0
h -422 -427 433 0
h -422 -428 434 0
h -422 -429 435 0
h -422 -430 436 0
h -423 -427 434 0
h -423 -428 435 0
h -423 -429 436 0
h -423 -430 437 0
h -51 438 0
h -50 438 0
h -51 -50 439 0
h -49 438 0
h -51 -49 439 0
h -50 -49 439 0
h -51 -50 -49 440 0
h -438 441 0
h -439 442 0
h -440 443 0
h -432 441 0
h -434 442 0
h -436 443 0
h -438 -432 442 0
h -438 -434 443 0
h -438 -436 444 0
h -439 -432 443 0
h -439 -434 444 0
h -440 -432 444 0
h -444 0
h 445 0
h -445 446 0
h -18 446 0
h -445 -18 447 0
h -16 446 0
h -445 -16 447 0
h -18 -16 447 0
h -445 -18 -16 448 0
h -15 449 0
h -14 449 0
h -15 -14 450 0
h -13 451 0
h -11 451 0
h -13 -11 452 0
h -8 451 0
h -13 -8 452 0
h -11 -8 452 0
h -13 -11 -8 453 0
h -449 454 0
h -450 455 0
h -451 454 0
h -452 455 0
h -453 456 0
h -449 -451 455 0
h -449 -452 456 0
h -449 -453 457 0
h -450 -451 456 0
h -450 -452 457 0
h -450 -453 458 0
h -446 459 0
h -447 460 0
h -448 461 0
h -454 459 0
h -455 460 0
h -456 461 0
h -457 462 0
h -458 463 0
h -446 -454 460 0
h -446 -455 461 0
h -446 -456 462 0
h -446 -457 463 0
h -446 -458 464 0
h -447 -454 461 0
h -447 -455 462 0
h -447 -456 463 0
h -447 -457 464 0
h -447 -458 465 0
h -448 -454 462 0
h -448 -455 463 0
h -448 -456 464 0
h -448 -457 465 0
h -448 -458 466 0
h -466 0
h 51 467 0
h 50 467 0
h 51 50 468 0
h 49 467 0
h 51 49 468 0
h 50 49 468 0
h 51 50 49 469 0
h -467 470 0
h -468 471 0
h -469 472 0
h -460 470 0
h -462 471 0
h -464 472 0
h -466 473 0
h -467 -460 471 0
h -467 -462 472 0
h -467 -464 473 0
h -468 -460 472 0
h -468 -462 473 0
h -469 -460 473 0
h -473 0
h 474 0
h 18 475 0
h 16 475 0
h 18 16 476 0
h 13 477 0
h 11 477 0
h 13 11 478 0
h 9 477 0
h 13 9 478 0
h 11 9 478 0
h 13 11 9 479 0
h -475 480 0
h -476 481 0
h -477 480 0
h -478 481 0
h -479 482 0
h -475 -477 481 0
h -475 -478 482 0
h -475 -479 483 0
h -476 -477 482 0
h -476 -478 483 0
h -476 -479 484 0
h -54 485 0
h -53 485 0
h -54 -53 486 0
h -485 487 0
h -486 488 0
h -481 487 0
h -483 488 0
h -485 -481 488 0
h -485 -483 489 0
h -486 -481 489 0
h -489 0
h 490 0
h -490 491 0
h -18 491 0
h -490 -18 492 0
h -16 491 0
h -490 -16 492 0
h -18 -16 492 0
h -490 -18 -16 493 0
h -13 494 0
h -11 494 0
h -13 -11 495 0
h -9 494 0
h -13 -9 495 0
h -11 -9 495 0
h -13 -11 -9 496 0
h -491 497 0
h -492 498 0
h -493 499 0
h -494 497 0
h -495 498 0
h -496 499 0
h -491 -494 498 0
h -491 -495 499 0
h -491 -496 500 0
h -492 -494 499 0
h -492 -495 500 0
h -492 -496 501 0
h -493 -494 500 0
h -493 -495 501 0
h -493 -496 502 0
h -502 0
h 54 503 0
h 53 503 0
h 54 53 504 0
h -503 505 0
h -504 506 0
h -498 505 0
h -500 506 0
h -502 507 0
h -503 -498 506 0
h -503 -500 507 0
h -504 -498 507 0
h -507 0
h 508 0
h -508 509 0
h 18 509 0
h -508 18 510 0
h 15 511 0
h 12 511 0
h 15 12 512 0
h 10 511 0
h 15 10 512 0
h 12 10 512 0
h 15 12 10 513 0
h -509 514 0
h -510 515 0
h -511 514 0
h -512 515 0
h -513 516 0
h -509 -511 515 0
h -509 -512 516 0
h -509 -513 517 0
h -510 -511 516 0
h -510 -512 517 0
h -510 -513 518 0
h -57 519 0
h -56 519 0
h -57 -56 520 0
h -519 521 0
h -520 522 0
h -515 521 0
h -517 522 0
h -519 -515 522 0
h -519 -517 523 0
h -520 -515 523 0
h -523 0
h 524 0
h -524 525 0
h -18 525 0
h -524 -18 526 0
h -15 527 0
h -12 527 0
h -15 -12 528 0
h -10 527 0
h -15 -10 528 0
h -12 -10 528 0
h -15 -12 -10 529 0
h -525 530 0
h -526 531 0
h -527 530 0
h -528 531 0
h -529 532 0
h -525 -527 531 0
h -525 -528 532 0
h -525 -529 533 0
h -526 -527 532 0
h -526 -528 533 0
h -526 -529 534 0
h 57 535 0
h 56 535 0
h 57 56 536 0
h -535 537 0
h -536 538 0
h -531 537 0
h -533 538 0
h -535 -531 538 0
h -535 -533 539 0
h -536 -531 539 0
h -539 0
h -23 22 0
h -24 23 0
h -27 26 0
h -30 29 0
h -33 32 0
h -34 33 0
h -37 36 0
h -38 37 0
h -41 40 0
h -42 41 0
h -45 44 0
h -46 45 0
h -47 46 0
h -50 49 0
h -51 50 0
h -54 53 0
h -57 56 0
h 1 2 3 4 5 6 7 8 9 10 11 12 13 14 15 16 17 18 19 20 0
